p edge 50 599
e 3 1
e 4 2
e 6 1
e 6 2
e 6 4
e 6 5
e 7 1
e 8 2
e 8 3
e 8 4
e 8 6
e 8 7
e 9 6
e 9 8
e 10 2
e 10 6
e 10 8
e 10 9
e 11 3
e 11 5
e 11 7
e 12 1
e 12 2
e 12 3
e 12 5
e 12 6
e 12 8
e 13 7
e 13 11
e 13 12
e 14 1
e 14 2
e 14 4
e 14 5
e 14 9
e 15 5
e 15 6
e 15 7
e 15 8
e 15 11
e 15 13
e 15 14
e 16 2
e 16 3
e 16 5
e 16 7
e 16 10
e 16 11
e 16 12
e 16 15
e 17 1
e 17 5
e 17 6
e 17 9
e 17 12
e 17 16
e 18 4
e 18 5
e 18 8
e 18 9
e 18 10
e 18 11
e 18 14
e 18 15
e 18 16
e 19 3
e 19 4
e 19 5
e 19 6
e 19 13
e 19 14
e 19 15
e 19 16
e 20 1
e 20 2
e 20 4
e 20 5
e 20 7
e 20 8
e 20 9
e 20 10
e 20 13
e 20 18
e 20 19
e 21 1
e 21 3
e 21 4
e 21 6
e 21 8
e 21 11
e 21 13
e 21 18
e 22 3
e 22 4
e 22 5
e 22 6
e 22 8
e 22 9
e 22 10
e 22 11
e 22 13
e 22 14
e 22 15
e 22 21
e 23 2
e 23 3
e 23 5
e 23 9
e 23 11
e 23 12
e 23 14
e 23 15
e 23 16
e 23 18
e 24 1
e 24 2
e 24 3
e 24 4
e 24 7
e 24 8
e 24 9
e 24 16
e 24 18
e 24 20
e 24 21
e 24 23
e 25 3
e 25 5
e 25 9
e 25 10
e 25 12
e 25 13
e 25 16
e 25 18
e 25 22
e 26 2
e 26 3
e 26 4
e 26 6
e 26 7
e 26 8
e 26 9
e 26 10
e 26 11
e 26 16
e 26 18
e 26 20
e 26 22
e 27 1
e 27 3
e 27 6
e 27 7
e 27 8
e 27 11
e 27 15
e 27 17
e 27 18
e 27 19
e 27 20
e 27 24
e 27 25
e 27 26
e 28 2
e 28 4
e 28 5
e 28 7
e 28 8
e 28 9
e 28 13
e 28 14
e 28 15
e 28 16
e 28 18
e 28 19
e 28 21
e 28 24
e 28 26
e 29 1
e 29 2
e 29 4
e 29 9
e 29 10
e 29 11
e 29 13
e 29 14
e 29 15
e 29 17
e 29 22
e 29 23
e 29 26
e 29 27
e 29 28
e 30 2
e 30 3
e 30 4
e 30 5
e 30 6
e 30 7
e 30 8
e 30 9
e 30 11
e 30 12
e 30 15
e 30 17
e 30 20
e 30 21
e 30 23
e 30 24
e 30 27
e 30 29
e 31 4
e 31 5
e 31 6
e 31 8
e 31 10
e 31 11
e 31 12
e 31 13
e 31 14
e 31 15
e 31 16
e 31 20
e 31 21
e 31 22
e 31 23
e 31 25
e 31 26
e 31 28
e 31 29
e 32 3
e 32 4
e 32 5
e 32 6
e 32 7
e 32 11
e 32 19
e 32 23
e 32 24
e 32 25
e 32 26
e 32 27
e 32 29
e 32 30
e 33 1
e 33 2
e 33 3
e 33 4
e 33 5
e 33 7
e 33 10
e 33 12
e 33 15
e 33 17
e 33 18
e 33 19
e 33 21
e 33 22
e 33 23
e 33 24
e 33 25
e 33 29
e 33 30
e 33 31
e 34 1
e 34 3
e 34 4
e 34 6
e 34 8
e 34 9
e 34 13
e 34 17
e 34 20
e 34 23
e 34 27
e 34 28
e 34 29
e 34 33
e 35 1
e 35 2
e 35 6
e 35 10
e 35 11
e 35 12
e 35 14
e 35 17
e 35 20
e 35 21
e 35 22
e 35 24
e 35 25
e 35 26
e 35 29
e 35 34
e 36 1
e 36 2
e 36 3
e 36 5
e 36 6
e 36 10
e 36 12
e 36 13
e 36 14
e 36 15
e 36 19
e 36 21
e 36 22
e 36 23
e 36 24
e 36 26
e 36 27
e 36 28
e 36 31
e 36 32
e 36 33
e 36 35
e 37 1
e 37 5
e 37 6
e 37 7
e 37 12
e 37 15
e 37 18
e 37 19
e 37 22
e 37 23
e 37 25
e 37 26
e 37 29
e 37 31
e 37 33
e 37 34
e 37 36
e 38 3
e 38 4
e 38 5
e 38 8
e 38 12
e 38 13
e 38 14
e 38 17
e 38 19
e 38 20
e 38 23
e 38 26
e 38 30
e 38 32
e 38 34
e 39 2
e 39 3
e 39 4
e 39 5
e 39 6
e 39 8
e 39 11
e 39 15
e 39 16
e 39 17
e 39 19
e 39 20
e 39 21
e 39 24
e 39 26
e 39 28
e 39 29
e 39 30
e 39 31
e 39 32
e 39 33
e 39 35
e 40 2
e 40 4
e 40 5
e 40 7
e 40 8
e 40 9
e 40 12
e 40 13
e 40 14
e 40 15
e 40 19
e 40 24
e 40 28
e 40 29
e 40 36
e 40 37
e 40 38
e 40 39
e 41 1
e 41 2
e 41 3
e 41 4
e 41 9
e 41 10
e 41 12
e 41 13
e 41 14
e 41 16
e 41 20
e 41 21
e 41 23
e 41 24
e 41 25
e 41 26
e 41 28
e 41 29
e 41 30
e 41 33
e 41 34
e 41 36
e 41 39
e 42 1
e 42 2
e 42 3
e 42 7
e 42 8
e 42 10
e 42 11
e 42 13
e 42 14
e 42 16
e 42 17
e 42 18
e 42 19
e 42 21
e 42 23
e 42 24
e 42 26
e 42 27
e 42 29
e 42 31
e 42 36
e 42 37
e 42 38
e 42 39
e 42 40
e 43 1
e 43 2
e 43 4
e 43 7
e 43 8
e 43 12
e 43 18
e 43 19
e 43 20
e 43 21
e 43 24
e 43 29
e 43 30
e 43 31
e 43 36
e 43 39
e 43 40
e 44 1
e 44 3
e 44 4
e 44 5
e 44 6
e 44 7
e 44 9
e 44 10
e 44 14
e 44 15
e 44 20
e 44 24
e 44 25
e 44 30
e 44 32
e 44 33
e 44 36
e 44 38
e 44 39
e 44 40
e 44 42
e 44 43
e 45 5
e 45 6
e 45 7
e 45 10
e 45 11
e 45 12
e 45 13
e 45 14
e 45 15
e 45 17
e 45 21
e 45 25
e 45 27
e 45 29
e 45 32
e 45 33
e 45 34
e 45 36
e 45 37
e 45 38
e 45 39
e 45 40
e 45 41
e 45 42
e 45 43
e 45 44
e 46 1
e 46 2
e 46 3
e 46 4
e 46 5
e 46 8
e 46 10
e 46 14
e 46 16
e 46 17
e 46 20
e 46 21
e 46 22
e 46 26
e 46 27
e 46 30
e 46 31
e 46 37
e 46 40
e 46 42
e 46 43
e 46 45
e 47 1
e 47 3
e 47 6
e 47 8
e 47 9
e 47 11
e 47 18
e 47 21
e 47 22
e 47 23
e 47 24
e 47 25
e 47 28
e 47 30
e 47 39
e 47 40
e 47 41
e 47 45
e 48 3
e 48 4
e 48 5
e 48 6
e 48 8
e 48 9
e 48 13
e 48 14
e 48 16
e 48 17
e 48 21
e 48 23
e 48 27
e 48 28
e 48 29
e 48 30
e 48 33
e 48 34
e 48 35
e 48 38
e 48 39
e 48 40
e 48 41
e 48 44
e 48 45
e 49 1
e 49 6
e 49 12
e 49 15
e 49 17
e 49 24
e 49 26
e 49 28
e 49 29
e 49 30
e 49 36
e 49 38
e 49 43
e 49 46
e 49 48
e 50 3
e 50 4
e 50 5
e 50 11
e 50 12
e 50 15
e 50 16
e 50 18
e 50 22
e 50 26
e 50 27
e 50 29
e 50 30
e 50 32
e 50 39
e 50 44
e 50 45
e 50 47
e 50 49
